(set-info :smt-lib-version 2.6)
(set-logic AUFBVFPDTNIRA)
(set-info :source |
Generated by: AdaCore
Generated on: 2020-03-06
Generator: SPARK
Application: Program verification for Ada
Target solver: CVC4
|)
(set-info :license "https://creativecommons.org/licenses/by/4.0/")
(set-info :category "industrial")
(set-info :status unknown)
;;; generated by SMT-LIB2 driver
;;; SMT-LIB2 driver: bit-vectors, common part
;;; SMT-LIB2: integer arithmetic
;;; SMT-LIB2: real arithmetic
(define-fun fp.isFinite32 ((x Float32)) Bool (not (or (fp.isInfinite x) (fp.isNaN x))))
(define-fun fp.isIntegral32 ((x Float32)) Bool (or (fp.isZero x) (and (fp.isNormal x) (= x (fp.roundToIntegral RNE x)))))
(define-fun fp.isFinite64 ((x Float64)) Bool (not (or (fp.isInfinite x) (fp.isNaN x))))
(define-fun fp.isIntegral64 ((x Float64)) Bool (or (fp.isZero x) (and (fp.isNormal x) (= x (fp.roundToIntegral RNE x)))))
(declare-sort string 0)

(declare-datatypes ((tuple0 0))
(((Tuple0))))
(declare-sort us_private 0)

(declare-fun private__bool_eq (us_private us_private) Bool)

(declare-const us_null_ext__ us_private)

(declare-sort us_type_of_heap 0)

(declare-datatypes ((us_type_of_heap__ref 0))
(((us_type_of_heap__refqtmk (us_type_of_heap__content us_type_of_heap)))))
(declare-sort us_image 0)

(declare-datatypes ((int__ref 0))
(((int__refqtmk (int__content Int)))))
(declare-datatypes ((bool__ref 0))
(((bool__refqtmk (bool__content Bool)))))
(declare-datatypes ((us_fixed__ref 0))
(((us_fixed__refqtmk (us_fixed__content Int)))))
(declare-datatypes ((real__ref 0))
(((real__refqtmk (real__content Real)))))
(declare-datatypes ((us_private__ref 0))
(((us_private__refqtmk (us_private__content us_private)))))
(define-fun int__ref___projection ((a int__ref)) Int (int__content a))

(define-fun us_fixed__ref___projection ((a us_fixed__ref)) Int (us_fixed__content
                                                               a))

(define-fun bool__ref___projection ((a bool__ref)) Bool (bool__content a))

(define-fun real__ref___projection ((a real__ref)) Real (real__content a))

(define-fun us_private__ref___projection ((a us_private__ref)) us_private 
  (us_private__content a))

(declare-fun pow2 (Int) Int)

(define-fun is_plus_infinity ((x Float32)) Bool (and (fp.isInfinite x)
                                                (fp.isPositive x)))

(define-fun is_minus_infinity ((x Float32)) Bool (and (fp.isInfinite x)
                                                 (fp.isNegative x)))

(define-fun is_plus_zero ((x Float32)) Bool (and (fp.isZero x)
                                            (fp.isPositive x)))

(define-fun is_minus_zero ((x Float32)) Bool (and (fp.isZero x)
                                             (fp.isNegative x)))

(declare-const max_int Int)

(define-fun in_int_range ((i Int)) Bool (and (<= (- max_int) i)
                                        (<= i max_int)))

(define-fun in_safe_int_range ((i Int)) Bool (and (<= (- 16777216) i)
                                             (<= i 16777216)))

(define-fun same_sign ((x Float32)
  (y Float32)) Bool (or (and (fp.isPositive x) (fp.isPositive y))
                    (and (fp.isNegative x) (fp.isNegative y))))

(define-fun diff_sign ((x Float32)
  (y Float32)) Bool (or (and (fp.isPositive x) (fp.isNegative y))
                    (and (fp.isNegative x) (fp.isPositive y))))

(define-fun product_sign ((z Float32) (x Float32)
  (y Float32)) Bool (and (=> (same_sign x y) (fp.isPositive z))
                    (=> (diff_sign x y) (fp.isNegative z))))

(define-fun sqr ((x Real)) Real (* x x))

(declare-fun sqrt1 (Real) Real)

(define-fun same_sign_real ((x Float32)
  (r Real)) Bool (or (and (fp.isPositive x) (< 0.0 r))
                 (and (fp.isNegative x) (< r 0.0))))

(declare-datatypes ((t__ref 0))
(((t__refqtmk (t__content Float32)))))
(define-fun is_plus_infinity1 ((x Float64)) Bool (and (fp.isInfinite x)
                                                 (fp.isPositive x)))

(define-fun is_minus_infinity1 ((x Float64)) Bool (and (fp.isInfinite x)
                                                  (fp.isNegative x)))

(define-fun is_plus_zero1 ((x Float64)) Bool (and (fp.isZero x)
                                             (fp.isPositive x)))

(define-fun is_minus_zero1 ((x Float64)) Bool (and (fp.isZero x)
                                              (fp.isNegative x)))

(declare-const max_int1 Int)

(define-fun in_int_range1 ((i Int)) Bool (and (<= (- max_int1) i)
                                         (<= i max_int1)))

(define-fun in_safe_int_range1 ((i Int)) Bool (and
                                              (<= (- 9007199254740992) i)
                                              (<= i 9007199254740992)))

(define-fun same_sign1 ((x Float64)
  (y Float64)) Bool (or (and (fp.isPositive x) (fp.isPositive y))
                    (and (fp.isNegative x) (fp.isNegative y))))

(define-fun diff_sign1 ((x Float64)
  (y Float64)) Bool (or (and (fp.isPositive x) (fp.isNegative y))
                    (and (fp.isNegative x) (fp.isPositive y))))

(define-fun product_sign1 ((z Float64) (x Float64)
  (y Float64)) Bool (and (=> (same_sign1 x y) (fp.isPositive z))
                    (=> (diff_sign1 x y) (fp.isNegative z))))

(define-fun same_sign_real1 ((x Float64)
  (r Real)) Bool (or (and (fp.isPositive x) (< 0.0 r))
                 (and (fp.isNegative x) (< r 0.0))))

(declare-datatypes ((t__ref1 0))
(((t__refqtmk1 (t__content1 Float64)))))
(declare-sort float__ 0)

(declare-fun user_eq (float__ float__) Bool)

(declare-fun attr__ATTRIBUTE_IMAGE (Float32) us_image)

(declare-fun attr__ATTRIBUTE_VALUE__pre_check (us_image) Bool)

(declare-fun attr__ATTRIBUTE_VALUE (us_image) Float32)

(declare-const dummy float__)

(declare-datatypes ((float____ref 0))
(((float____refqtmk (float____content float__)))))
(define-fun float____ref_float____content__projection ((a float____ref)) float__ 
  (float____content a))

(define-fun dynamic_invariant ((temp___expr_60 Float32)
  (temp___is_init_56 Bool) (temp___skip_constant_57 Bool)
  (temp___do_toplevel_58 Bool)
  (temp___do_typ_inv_59 Bool)) Bool (=>
                                    (or (= temp___is_init_56 true)
                                    (fp.leq (fp.neg (fp #b0 #b11111110 #b11111111111111111111111)) (fp #b0 #b11111110 #b11111111111111111111111)))
                                    (fp.isFinite32 temp___expr_60)))

(declare-const f Float32)

(declare-const attr__ATTRIBUTE_ADDRESS Int)

(declare-sort long_float 0)

(declare-fun user_eq1 (long_float long_float) Bool)

(declare-fun attr__ATTRIBUTE_IMAGE1 (Float64) us_image)

(declare-fun attr__ATTRIBUTE_VALUE__pre_check1 (us_image) Bool)

(declare-fun attr__ATTRIBUTE_VALUE1 (us_image) Float64)

(declare-const dummy1 long_float)

(declare-datatypes ((long_float__ref 0))
(((long_float__refqtmk (long_float__content long_float)))))
(define-fun long_float__ref_long_float__content__projection ((a long_float__ref)) long_float 
  (long_float__content a))

(define-fun dynamic_invariant1 ((temp___expr_67 Float64)
  (temp___is_init_63 Bool) (temp___skip_constant_64 Bool)
  (temp___do_toplevel_65 Bool)
  (temp___do_typ_inv_66 Bool)) Bool (=>
                                    (or (= temp___is_init_63 true)
                                    (fp.leq (fp.neg (fp #b0 #b11111111110 #b1111111111111111111111111111111111111111111111111111)) (fp #b0 #b11111111110 #b1111111111111111111111111111111111111111111111111111)))
                                    (fp.isFinite64 temp___expr_67)))

(declare-fun sqrt2 (Float64) Float64)

(declare-fun sqrt__function_guard (Float64 Float64) Bool)

;; sqrt__post_axiom
  (assert
  (forall ((x Float64))
  (! (=>
     (and (dynamic_invariant1 x true true true true)
     (fp.leq (fp #b0 #b00000000000 #b0000000000000000000000000000000000000000000000000000) x))
     (let ((result (sqrt2 x)))
     (and
     (and
     (and
     (and
     (fp.leq (fp #b0 #b00000000000 #b0000000000000000000000000000000000000000000000000000) result)
     (=>
     (fp.eq x (fp #b0 #b00000000000 #b0000000000000000000000000000000000000000000000000000))
     (fp.eq result (fp #b0 #b00000000000 #b0000000000000000000000000000000000000000000000000000))))
     (=>
     (fp.eq x (fp #b0 #b01111111111 #b0000000000000000000000000000000000000000000000000000))
     (fp.eq result (fp #b0 #b01111111111 #b0000000000000000000000000000000000000000000000000000))))
     (=>
     (fp.leq (fp #b0 #b00000000000 #b0000000000000000000000000000000000000000000000000001) x)
     (fp.lt (fp #b0 #b00000000000 #b0000000000000000000000000000000000000000000000000000) result)))
     (dynamic_invariant1 result true false true true)))) :pattern ((sqrt2 x)) )))

(assert
;; defqtvc
 ;; File "simulink_functions.ads", line 106, characters 0-0
  (not
  (=> (dynamic_invariant f true false true true)
  (let ((o ((_ to_fp 11 53) RNE f)))
  (let ((o1 (sqrt2 o)))
  (=>
  (and (dynamic_invariant1 o1 true false true true)
  (and
  (and
  (and
  (fp.leq (fp #b0 #b00000000000 #b0000000000000000000000000000000000000000000000000000) o1)
  (=>
  (fp.eq o (fp #b0 #b00000000000 #b0000000000000000000000000000000000000000000000000000))
  (fp.eq o1 (fp #b0 #b00000000000 #b0000000000000000000000000000000000000000000000000000))))
  (=>
  (fp.eq o (fp #b0 #b01111111111 #b0000000000000000000000000000000000000000000000000000))
  (fp.eq o1 (fp #b0 #b01111111111 #b0000000000000000000000000000000000000000000000000000))))
  (=>
  (fp.leq (fp #b0 #b00000000000 #b0000000000000000000000000000000000000000000000000001) o)
  (fp.lt (fp #b0 #b00000000000 #b0000000000000000000000000000000000000000000000000000) o1))))
  (fp.isFinite32 ((_ to_fp 8 24) RNE o1))))))))
(check-sat)
(exit)
